examples/inputs/input22.dzn
n = 60;
l = 450;
s = 450;
r = 450;
f = 100;
forbidden = [| 21, 10
    | 23, 27
    | 13, 54
    | 3, 43
    | 22, 51
    | 52, 49
    | 14, 59
    | 17, 37
    | 44, 53
    | 1, 46
    | 1, 49
    | 5, 60
    | 56, 59
    | 1, 50
    | 26, 7
    | 11, 21
    | 46, 9
    | 21, 8
    | 23, 57
    | 8, 21
    | 12, 19
    | 18, 17
    | 13, 29
    | 2, 5
    | 24, 3
    | 16, 29
    | 19, 51
    | 60, 41
    | 8, 39
    | 6, 29
    | 17, 48
    | 51, 19
    | 16, 31
    | 47, 49
    | 3, 6
    | 48, 15
    | 2, 12
    | 28, 34
    | 9, 6
    | 20, 51
    | 19, 6
    | 34, 6
    | 18, 43
    | 9, 11
    | 15, 35
    | 24, 26
    | 35, 52
    | 38, 23
    | 6, 13
    | 36, 20
    | 4, 24
    | 24, 28
    | 34, 57
    | 29, 11
    | 1, 40
    | 17, 41
    | 49, 15
    | 53, 1
    | 53, 30
    | 51, 53
    | 28, 33
    | 8, 49
    | 38, 39
    | 36, 36
    | 42, 4
    | 54, 49
    | 32, 39
    | 5, 58
    | 55, 4
    | 32, 37
    | 46, 31
    | 38, 59
    | 54, 58
    | 23, 25
    | 18, 13
    | 30, 10
    | 29, 48
    | 41, 58
    | 56, 38
    | 46, 15
    | 30, 11
    | 39, 4
    | 15, 50
    | 14, 54
    | 40, 21
    | 42, 55
    | 16, 16
    | 9, 20
    | 41, 60
    | 9, 23
    | 25, 5
    | 46, 10
    | 57, 58
    | 25, 32
    | 34, 17
    | 26, 26
    | 1, 15
    | 32, 34
    | 44, 22
    | 22, 39
	|];