examples/inputs/input22.lp
#const n = 60.
#const l = 450.
#const s = 450.
#const r = 450.
#const f = 100.
val(21, 10, xxx).
val(23, 27, xxx).
val(13, 54, xxx).
val(3, 43, xxx).
val(22, 51, xxx).
val(52, 49, xxx).
val(14, 59, xxx).
val(17, 37, xxx).
val(44, 53, xxx).
val(1, 46, xxx).
val(1, 49, xxx).
val(5, 60, xxx).
val(56, 59, xxx).
val(1, 50, xxx).
val(26, 7, xxx).
val(11, 21, xxx).
val(46, 9, xxx).
val(21, 8, xxx).
val(23, 57, xxx).
val(8, 21, xxx).
val(12, 19, xxx).
val(18, 17, xxx).
val(13, 29, xxx).
val(2, 5, xxx).
val(24, 3, xxx).
val(16, 29, xxx).
val(19, 51, xxx).
val(60, 41, xxx).
val(8, 39, xxx).
val(6, 29, xxx).
val(17, 48, xxx).
val(51, 19, xxx).
val(16, 31, xxx).
val(47, 49, xxx).
val(3, 6, xxx).
val(48, 15, xxx).
val(2, 12, xxx).
val(28, 34, xxx).
val(9, 6, xxx).
val(20, 51, xxx).
val(19, 6, xxx).
val(34, 6, xxx).
val(18, 43, xxx).
val(9, 11, xxx).
val(15, 35, xxx).
val(24, 26, xxx).
val(35, 52, xxx).
val(38, 23, xxx).
val(6, 13, xxx).
val(36, 20, xxx).
val(4, 24, xxx).
val(24, 28, xxx).
val(34, 57, xxx).
val(29, 11, xxx).
val(1, 40, xxx).
val(17, 41, xxx).
val(49, 15, xxx).
val(53, 1, xxx).
val(53, 30, xxx).
val(51, 53, xxx).
val(28, 33, xxx).
val(8, 49, xxx).
val(38, 39, xxx).
val(36, 36, xxx).
val(42, 4, xxx).
val(54, 49, xxx).
val(32, 39, xxx).
val(5, 58, xxx).
val(55, 4, xxx).
val(32, 37, xxx).
val(46, 31, xxx).
val(38, 59, xxx).
val(54, 58, xxx).
val(23, 25, xxx).
val(18, 13, xxx).
val(30, 10, xxx).
val(29, 48, xxx).
val(41, 58, xxx).
val(56, 38, xxx).
val(46, 15, xxx).
val(30, 11, xxx).
val(39, 4, xxx).
val(15, 50, xxx).
val(14, 54, xxx).
val(40, 21, xxx).
val(42, 55, xxx).
val(16, 16, xxx).
val(9, 20, xxx).
val(41, 60, xxx).
val(9, 23, xxx).
val(25, 5, xxx).
val(46, 10, xxx).
val(57, 58, xxx).
val(25, 32, xxx).
val(34, 17, xxx).
val(26, 26, xxx).
val(1, 15, xxx).
val(32, 34, xxx).
val(44, 22, xxx).
val(22, 39, xxx).